77
150
105	1
103	3
101	1
100	3
99	1
98	2
97	3
95	1
94	4
93	1
92	5
91	1
89	2
88	3
87	4
86	2
84	5
83	4
82	2
81	1
80	2
78	1
77	1
76	2
75	2
73	4
72	1
71	4
70	2
68	6
67	3
66	4
65	4
64	2
63	2
62	1
61	1
60	2
59	4
58	2
57	3
53	2
52	5
51	3
50	1
49	1
48	2
46	2
45	2
44	4
43	2
42	2
41	2
40	2
39	1
38	3
37	1
35	1
34	5
33	4
32	7
31	2
30	3
29	6
28	4
26	1
25	3
24	2
23	3
22	3
21	1
20	4
19	5
18	2
17	2
16	3
15	2
